p cnf 54 224
c Factors encoded in variables 1-4 and 5-8
2 3 4 0
6 7 8 0
-9 0
10 0
-27 12 15 0
-27 -12 -15 0
27 12 -15 0
27 -12 15 0
-12 -15 28 0
12 15 -28 0
12 -28 0
15 -28 0
-29 13 16 28 0
-29 -13 -16 28 0
-29 -13 16 -28 0
-29 13 -16 -28 0
29 -13 -16 -28 0
29 13 16 -28 0
29 13 -16 28 0
29 -13 16 28 0
-13 -16 30 0
-13 -28 30 0
-16 -28 30 0
13 16 -30 0
13 28 -30 0
16 28 -30 0
-31 14 17 30 0
-31 -14 -17 30 0
-31 -14 17 -30 0
-31 14 -17 -30 0
31 -14 -17 -30 0
31 14 17 -30 0
31 14 -17 30 0
31 -14 17 30 0
-14 -17 32 0
-14 -30 32 0
-17 -30 32 0
14 17 -32 0
14 30 -32 0
17 30 -32 0
-33 18 32 0
-33 -18 -32 0
33 18 -32 0
33 -18 32 0
-18 -32 34 0
18 32 -34 0
18 -34 0
32 -34 0
-35 20 23 0
-35 -20 -23 0
35 20 -23 0
35 -20 23 0
-20 -23 36 0
20 23 -36 0
20 -36 0
23 -36 0
-37 21 24 36 0
-37 -21 -24 36 0
-37 -21 24 -36 0
-37 21 -24 -36 0
37 -21 -24 -36 0
37 21 24 -36 0
37 21 -24 36 0
37 -21 24 36 0
-21 -24 38 0
-21 -36 38 0
-24 -36 38 0
21 24 -38 0
21 36 -38 0
24 36 -38 0
-39 22 25 38 0
-39 -22 -25 38 0
-39 -22 25 -38 0
-39 22 -25 -38 0
39 -22 -25 -38 0
39 22 25 -38 0
39 22 -25 38 0
39 -22 25 38 0
-22 -25 40 0
-22 -38 40 0
-25 -38 40 0
22 25 -40 0
22 38 -40 0
25 38 -40 0
-41 26 40 0
-41 -26 -40 0
41 26 -40 0
41 -26 40 0
-26 -40 42 0
26 40 -42 0
26 -42 0
40 -42 0
-43 29 19 0
-43 -29 -19 0
43 29 -19 0
43 -29 19 0
-29 -19 44 0
29 19 -44 0
29 -44 0
19 -44 0
-45 31 35 44 0
-45 -31 -35 44 0
-45 -31 35 -44 0
-45 31 -35 -44 0
45 -31 -35 -44 0
45 31 35 -44 0
45 31 -35 44 0
45 -31 35 44 0
-31 -35 46 0
-31 -44 46 0
-35 -44 46 0
31 35 -46 0
31 44 -46 0
35 44 -46 0
-47 33 37 46 0
-47 -33 -37 46 0
-47 -33 37 -46 0
-47 33 -37 -46 0
47 -33 -37 -46 0
47 33 37 -46 0
47 33 -37 46 0
47 -33 37 46 0
-33 -37 48 0
-33 -46 48 0
-37 -46 48 0
33 37 -48 0
33 46 -48 0
37 46 -48 0
-49 34 39 48 0
-49 -34 -39 48 0
-49 -34 39 -48 0
-49 34 -39 -48 0
49 -34 -39 -48 0
49 34 39 -48 0
49 34 -39 48 0
49 -34 39 48 0
-34 -39 50 0
-34 -48 50 0
-39 -48 50 0
34 39 -50 0
34 48 -50 0
39 48 -50 0
-51 41 50 0
-51 -41 -50 0
51 41 -50 0
51 -41 50 0
-41 -50 52 0
41 50 -52 0
41 -52 0
50 -52 0
-53 42 52 0
-53 -42 -52 0
53 42 -52 0
53 -42 52 0
-42 -52 54 0
42 52 -54 0
42 -54 0
52 -54 0
11 -1 -5 0
-11 1 0
-11 5 0
12 -2 -5 0
-12 2 0
-12 5 0
13 -3 -5 0
-13 3 0
-13 5 0
14 -4 -5 0
-14 4 0
-14 5 0
15 -1 -6 0
-15 1 0
-15 6 0
16 -2 -6 0
-16 2 0
-16 6 0
17 -3 -6 0
-17 3 0
-17 6 0
18 -4 -6 0
-18 4 0
-18 6 0
19 -1 -7 0
-19 1 0
-19 7 0
20 -2 -7 0
-20 2 0
-20 7 0
21 -3 -7 0
-21 3 0
-21 7 0
22 -4 -7 0
-22 4 0
-22 7 0
23 -1 -8 0
-23 1 0
-23 8 0
24 -2 -8 0
-24 2 0
-24 8 0
25 -3 -8 0
-25 3 0
-25 8 0
26 -4 -8 0
-26 4 0
-26 8 0
11 -9 0
-11 9 0
27 -10 0
-27 10 0
43 -9 0
-43 9 0
45 -9 0
-45 9 0
47 -9 0
-47 9 0
49 -9 0
-49 9 0
51 -10 0
-51 10 0
53 -9 0
-53 9 0
54 -9 0
-54 9 0
